output ["x = ",show(x),";\n","objective = ",show(objective),";\n"];
set of int: VRange = 1..50;
array [VRange] of int: c = [360,83,59,130,431,67,230,52,93,125,670,892,600,38,48,147,78,256,63,17,120,164,432,35,92,110,22,42,50,323,514,28,87,73,78,15,26,78,210,36,85,189,274,43,33,10,19,389,276,312];
array [VRange] of int: x;
int: objective = sum([c[i]*x[i] | i in VRange, ]);
